; benchmark generated from python API
(set-info :status unknown)
(declare-fun x_days () Int)
(declare-fun y_days () Int)
(declare-fun p_days () Int)
(declare-fun q_days () Int)
(assert
 (>= x_days (- 36584)))
(assert
 (<= x_days 36829))
(assert
 (>= y_days (- 36584)))
(assert
 (<= y_days 36829))
(assert
 (= x_days 7245))
(assert
 (= p_days 105))
(assert
 (= q_days 50))
(assert
 (let (($x29 (or (and (= (mod 2000 4) 0) (and (distinct (mod 2000 100) 0) true)) (= (mod 2000 400) 0))))
 (let ((?x36 (ite (= 3 2) (ite $x29 31 31) (ite (= 3 1) (ite $x29 0 0) 0))))
 (let ((?x40 (ite $x29 60 59)))
 (let ((?x41 (ite (= 3 3) ?x40 ?x36)))
 (let ((?x46 (ite (= 3 4) (ite $x29 91 90) ?x41)))
 (let ((?x52 (ite (= 3 5) (ite $x29 121 120) ?x46)))
 (let ((?x58 (ite (= 3 6) (ite $x29 152 151) ?x52)))
 (let ((?x64 (ite (= 3 7) (ite $x29 182 181) ?x58)))
 (let ((?x70 (ite (= 3 8) (ite $x29 213 212) ?x64)))
 (let ((?x76 (ite (= 3 9) (ite $x29 244 243) ?x70)))
 (let ((?x82 (ite (= 3 10) (ite $x29 274 273) ?x76)))
 (let ((?x88 (ite (= 3 11) (ite $x29 305 304) ?x82)))
 (let ((?x16 (- (+ (* 365 (- 2000 1)) (div (- 2000 1) 4)) (div (- 2000 1) 100))))
 (let ((?x95 (+ (+ ?x16 (div (- 2000 1) 400)) (ite (= 3 12) (ite $x29 335 334) ?x88))))
 (let ((?x97 (+ ?x95 (- 1 1))))
 (let ((?x458 (+ (+ (+ x_days p_days) q_days) ?x97)))
 (let ((?x335 (mod ?x458 146097)))
 (let ((?x937 (div ?x335 36524)))
 (let ((?x1938 (ite (<= 4 ?x937) 3 ?x937)))
 (let ((?x3942 (- ?x335 (* ?x1938 36524))))
 (let ((?x2951 (mod ?x3942 1461)))
 (let ((?x659 (div ?x2951 365)))
 (let ((?x284 (ite (<= 4 ?x659) 3 ?x659)))
 (let ((?x3900 (+ (+ (* (div ?x458 146097) 400) (* ?x1938 100)) (* (div ?x3942 1461) 4))))
 (let ((?x375 (+ (+ ?x3900 ?x284) 1)))
 (let (($x786 (or (and (= (mod ?x375 4) 0) (and (distinct (mod ?x375 100) 0) true)) (= (mod ?x375 400) 0))))
 (let ((?x547 (- ?x2951 (* ?x284 365))))
 (let ((?x3170 (ite $x786 31 31)))
 (let (($x2695 (>= ?x547 ?x3170)))
 (let ((?x3309 (ite $x2695 (+ (- ?x547 ?x3170) 1) (+ (- ?x547 (ite $x786 0 0)) 1))))
 (let ((?x106 (ite $x786 60 59)))
 (let (($x525 (>= ?x547 ?x106)))
 (let ((?x314 (ite $x786 91 90)))
 (let (($x134 (>= ?x547 ?x314)))
 (let ((?x518 (ite $x134 (+ (- ?x547 ?x314) 1) (ite $x525 (+ (- ?x547 ?x106) 1) ?x3309))))
 (let ((?x298 (ite $x786 121 120)))
 (let (($x761 (>= ?x547 ?x298)))
 (let ((?x735 (ite $x786 152 151)))
 (let (($x765 (>= ?x547 ?x735)))
 (let ((?x3940 (ite $x765 (+ (- ?x547 ?x735) 1) (ite $x761 (+ (- ?x547 ?x298) 1) ?x518))))
 (let ((?x897 (ite $x786 182 181)))
 (let (($x434 (>= ?x547 ?x897)))
 (let ((?x634 (ite $x786 213 212)))
 (let (($x965 (>= ?x547 ?x634)))
 (let ((?x660 (ite $x965 (+ (- ?x547 ?x634) 1) (ite $x434 (+ (- ?x547 ?x897) 1) ?x3940))))
 (let ((?x905 (ite $x786 244 243)))
 (let (($x483 (>= ?x547 ?x905)))
 (let ((?x951 (ite $x786 274 273)))
 (let (($x551 (>= ?x547 ?x951)))
 (let ((?x2869 (ite $x551 (+ (- ?x547 ?x951) 1) (ite $x483 (+ (- ?x547 ?x905) 1) ?x660))))
 (let ((?x277 (ite $x786 305 304)))
 (let (($x356 (>= ?x547 ?x277)))
 (let ((?x307 (ite $x786 335 334)))
 (let (($x553 (>= ?x547 ?x307)))
 (let ((?x2309 (ite $x553 (+ (- ?x547 ?x307) 1) (ite $x356 (+ (- ?x547 ?x277) 1) ?x2869))))
 (let ((?x595 (ite $x761 5 (ite $x134 4 (ite $x525 3 (ite $x2695 2 1))))))
 (let ((?x340 (ite $x483 9 (ite $x965 8 (ite $x434 7 (ite $x765 6 ?x595))))))
 (let ((?x2415 (- (+ (ite $x553 12 (ite $x356 11 (ite $x551 10 ?x340))) 0) 1)))
 (let ((?x957 (+ (mod ?x2415 12) 1)))
 (let ((?x2229 (ite (or (= ?x957 4) (= ?x957 6) (= ?x957 9) (= ?x957 11)) 30 31)))
 (let (($x282 (and (= (mod (+ (+ ?x375 0) (div ?x2415 12)) 4) 0) (and (distinct (mod (+ (+ ?x375 0) (div ?x2415 12)) 100) 0) true))))
 (let (($x732 (or $x282 (= (mod (+ (+ ?x375 0) (div ?x2415 12)) 400) 0))))
 (let ((?x200 (ite (= ?x957 2) (ite $x732 29 28) ?x2229)))
 (let ((?x811 (ite (= 2 ?x957) (ite $x732 31 31) (ite (= 1 ?x957) (ite $x732 0 0) 0))))
 (let ((?x3959 (ite (= 4 ?x957) (ite $x732 91 90) (ite (= 3 ?x957) (ite $x732 60 59) ?x811))))
 (let ((?x3375 (ite (= 6 ?x957) (ite $x732 152 151) (ite (= 5 ?x957) (ite $x732 121 120) ?x3959))))
 (let ((?x315 (ite (= 8 ?x957) (ite $x732 213 212) (ite (= 7 ?x957) (ite $x732 182 181) ?x3375))))
 (let ((?x510 (ite (= 10 ?x957) (ite $x732 274 273) (ite (= 9 ?x957) (ite $x732 244 243) ?x315))))
 (let ((?x535 (ite (= 12 ?x957) (ite $x732 335 334) (ite (= 11 ?x957) (ite $x732 305 304) ?x510))))
 (let ((?x782 (+ (* 365 (- (+ (+ ?x375 0) (div ?x2415 12)) 1)) (div (- (+ (+ ?x375 0) (div ?x2415 12)) 1) 4))))
 (let ((?x809 (+ (- ?x782 (div (- (+ (+ ?x375 0) (div ?x2415 12)) 1) 100)) (div (- (+ (+ ?x375 0) (div ?x2415 12)) 1) 400))))
 (let ((?x561 (+ (+ ?x809 ?x535) (- (ite (> 1 ?x2309) 1 (ite (> ?x2309 ?x200) ?x200 ?x2309)) 1))))
 (= y_days (- (+ ?x561 (- 5)) ?x97)))))))))))))))))))))))))))))))))))))))))))))))))))))))))))))))))))))))))))
(assert
 (= y_days 7395))
(check-sat)
